\ This file has been generated by DOcplex
\ ENCODING=ISO-8859-1
\Problem name: wirelessDelay problem

Minimize
 obj: V
Subject To
 c1: V >= 0
 c2: V >= 0
 c3: a1_u0_x0 + a1_u1_x0 = 1
 c4: a1_u0_x1 + a1_u1_x1 = 1
 c5: a1_u0_x2 + a1_u1_x2 = 1
 c6: a1_u0_x3 + a1_u1_x3 = 1
 c7: a1_u0_x4 + a1_u1_x4 = 1
 c8: a1_u0_x5 + a1_u1_x5 = 1
 c9: a1_u0_x6 + a1_u1_x6 = 1
 c10: a1_u0_x7 + a1_u1_x7 = 1
 c11: a1_u0_x8 + a1_u1_x8 = 1
 c12: a1_u0_x9 + a1_u1_x9 = 1
 c13: a1_u0_x10 + a1_u1_x10 = 1
 c14: a1_u0_x11 + a1_u1_x11 = 1
 c15: a1_u0_x12 + a1_u1_x12 = 1
 c16: a1_u0_x13 + a1_u1_x13 = 1
 c17: a1_u0_x14 + a1_u1_x14 = 1
 c18: a1_u0_x15 + a1_u1_x15 = 1
 c19: a1_u0_x16 + a1_u1_x16 = 1
 c20: a1_u0_x17 + a1_u1_x17 = 1
 c21: a1_u0_x18 + a1_u1_x18 = 1
 c22: a1_u0_x19 + a1_u1_x19 = 1
 c23: a1_u0_x20 + a1_u1_x20 = 1
 c24: a1_u0_x21 + a1_u1_x21 = 1
 c25: a1_u0_x22 + a1_u1_x22 = 1
 c26: a1_u0_x23 + a1_u1_x23 = 1
 c27: a1_u0_x24 + a1_u1_x24 = 1
 c28: a1_u0_x25 + a1_u1_x25 = 1
 c29: a1_u0_x26 + a1_u1_x26 = 1
 c30: a1_u0_x27 + a1_u1_x27 = 1
 c31: a1_u0_x28 + a1_u1_x28 = 1
 c32: a1_u0_x29 + a1_u1_x29 = 1
 c33: a1_u0_x30 + a1_u1_x30 = 1
 c34: a1_u0_x31 + a1_u1_x31 = 1
 c35: a1_u0_x32 + a1_u1_x32 = 1
 c36: a1_u0_x33 + a1_u1_x33 = 1
 c37: a1_u0_x34 + a1_u1_x34 = 1
 c38: a1_u0_x35 + a1_u1_x35 = 1
 c39: a1_u0_x36 + a1_u1_x36 = 1
 c40: a1_u0_x37 + a1_u1_x37 = 1
 c41: a1_u0_x38 + a1_u1_x38 = 1
 c42: a1_u0_x39 + a1_u1_x39 = 1
 c43: a1_u0_x40 + a1_u1_x40 = 1
 c44: a1_u0_x41 + a1_u1_x41 = 1
 c45: a1_u0_x42 + a1_u1_x42 = 1
 c46: a1_u0_x43 + a1_u1_x43 = 1
 c47: a1_u0_x44 + a1_u1_x44 = 1
 c48: a1_u0_x45 + a1_u1_x45 = 1
 c49: a1_u0_x46 + a1_u1_x46 = 1
 c50: a1_u0_x47 + a1_u1_x47 = 1
 c51: a1_u0_x48 + a1_u1_x48 = 1
 c52: a1_u0_x49 + a1_u1_x49 = 1
 c53: a1_u0_x50 + a1_u1_x50 = 1
 c54: a1_u0_x51 + a1_u1_x51 = 1
 c55: a1_u0_x52 + a1_u1_x52 = 1
 c56: a1_u0_x53 + a1_u1_x53 = 1
 c57: a1_u0_x54 + a1_u1_x54 = 1
 c58: a1_u0_x55 + a1_u1_x55 = 1
 c59: a1_u0_x56 + a1_u1_x56 = 1
 c60: a1_u0_x57 + a1_u1_x57 = 1
 c61: a1_u0_x58 + a1_u1_x58 = 1
 c62: a1_u0_x59 + a1_u1_x59 = 1
 c63: a1_u0_x60 + a1_u1_x60 = 1
 c64: a1_u0_x61 + a1_u1_x61 = 1
 c65: a1_u0_x62 + a1_u1_x62 = 1
 c66: a1_u0_x63 + a1_u1_x63 = 1

Bounds
       V Free
End
